1 1:-0.43401875245810945 2:0.12405377652225841
1 1:0.5044561822614063 2:-0.18565702893726158
-1 1:0.8994323388396289 2:0.42130097911270625
-1 1:0.3016260347224806 2:0.9161536088807889
-1 1:-0.4402352149998505 2:1.0045344134445857
1 1:0.4739496880761694 2:-0.05244614898908853
1 1:0.29412317167819574 2:-0.44935461766159124
-1 1:0.2625053130938226 2:-0.9706219356381744
1 1:-0.31746296266942203 2:-0.3996181123911447
-1 1:-0.8511158952643858 2:0.37405971186613657
-1 1:-0.6278238841445959 2:-0.710534497038167
1 1:0.5292696642585156 2:0.07482419544625883
1 1:-0.4590953065702017 2:0.13801860250906886
-1 1:-0.35190824936416737 2:-0.9301924206665881
1 1:-0.44097451495742057 2:0.06584750477966053
1 1:-0.3225174827181635 2:-0.49188515221012513
-1 1:-0.8510967258126441 2:0.5954143621079556
-1 1:0.8927523473328177 2:-0.38083182743245103
1 1:0.3262804686028637 2:0.4283964706774191
1 1:-0.18131480325717672 2:-0.4231274238206437
1 1:0.3146896989033883 2:0.4735689572155973
-1 1:-0.8451941617202865 2:-0.5560646183398444
1 1:0.285036243389874 2:0.5177404430764789
-1 1:-0.4921171969616863 2:-0.8118297163515807
1 1:0.36793344066977607 2:0.2591896787400478
1 1:-0.24714495649020016 2:0.43730741776606
-1 1:0.8601038371430902 2:0.578584476819485
-1 1:-0.30993941658328894 2:-0.9445727263849469
-1 1:0.9414529190407173 2:-0.20483478822553985
1 1:-0.012520435748897874 2:-0.4370621627503034
-1 1:0.701223729261492 2:0.5887524489083213
1 1:0.11109175861040851 2:-0.502335652496494
1 1:0.30712142121773345 2:0.4721961067609528
-1 1:-0.597266385142192 2:-0.7660690224323218
1 1:-0.3362477214088293 2:0.295823079644852
-1 1:0.9674419073449911 2:-0.22945449536788548
1 1:0.4551487121664094 2:0.0055897739473401865
1 1:0.4076706364001422 2:-0.25067250187457524
-1 1:0.80277138400941 2:-0.688860233613123
1 1:-0.41462774324494134 2:-0.18038188501575203
-1 1:-0.8663963186155137 2:-0.6201839293747129
1 1:-0.4714536762537687 2:0.019974134290626146
1 1:-0.5368566084696431 2:0.1641247617295009
1 1:-0.169299518068572 2:-0.46538269823578327
1 1:0.3979662784524284 2:-0.38052022665113017
-1 1:0.3485560668847492 2:-0.8796555983359257
1 1:0.4765166173520737 2:-0.31214786473819756
-1 1:0.5884159683297918 2:-0.8566963130450203
-1 1:-0.2769039927627083 2:0.9579110401790155
1 1:0.4916039809552583 2:0.15045096144518139
-1 1:-0.29882347531380776 2:-0.9655491823162227
1 1:0.38128995690940615 2:-0.44526935992734196
1 1:0.41460386927761345 2:-0.33412946040001146
1 1:0.500268364376118 2:0.17937329437838673
1 1:0.15664866199659086 2:-0.40575395510023493
1 1:0.29058114660114803 2:0.41676404821027735
-1 1:-0.32883761874729434 2:-0.9999652035401794
1 1:-0.1551654245232125 2:0.48021684177747703
-1 1:-0.8503736259884297 2:-0.4258936310522901
1 1:0.08687265822759807 2:-0.5406082995078407
1 1:-0.5833414424030983 2:-0.005130994709710339
-1 1:-0.0898854757487408 2:1.0299712807251102
-1 1:-0.9261227441735017 2:0.35133165656127346
-1 1:-0.819182569187293 2:-0.5359195036026511
1 1:0.41392116958212216 2:-0.14246436701361337
-1 1:-1.0432746431893432 2:0.21288708112815508
-1 1:0.9158816142008076 2:0.5805667125944781
1 1:0.3482564917423197 2:-0.28114288307641233
-1 1:0.88860988330349 2:-0.4038981892265918
1 1:-0.31774392183696526 2:-0.31019088719030385
1 1:-0.4073755741572055 2:-0.37317523965584903
1 1:-0.4905305941892491 2:-0.17390477991180064
-1 1:-0.9180424063657513 2:0.2749889192877661
1 1:-0.48328266559124616 2:0.23145545378079185
-1 1:1.0248443771392797 2:-0.31941298278994196
1 1:0.07226529537696268 2:0.5722887781798063
1 1:0.5574906050938323 2:0.03185821014263657
-1 1:-0.7893715048874623 2:0.6682502107889968
-1 1:-0.12454121587310008 2:-0.9760531560887172
-1 1:-0.0260960344665214 2:-0.9368300235571106
-1 1:0.37477019431374164 2:0.8494025884071689
-1 1:0.14251949801765923 2:1.0585787485912304
1 1:-0.3666535651447541 2:0.1830385744031896
1 1:-0.42825340290636776 2:-0.012308069959755537
-1 1:0.6509433317022784 2:-0.6742126327786344
1 1:0.4111517585981921 2:0.10996051770943177
-1 1:-0.8884787495388913 2:-0.37001478746991634
-1 1:-1.017084563821311 2:-0.23728955535459825
1 1:-0.507487957997555 2:-0.04837233005631531
1 1:-0.3624418521061417 2:0.2549485117985659
1 1:-0.10325359780177124 2:-0.560125254067914
1 1:-0.39991150420386234 2:0.048176600556957334
-1 1:-0.3679062714495652 2:-0.985069595654849
-1 1:-0.9198496061060099 2:-0.6794250205317274
1 1:-0.16234344326406533 2:-0.460185617838526
-1 1:-1.0002455614522818 2:-0.10702979722900702
1 1:0.12129885297439899 2:-0.5115713625998378
-1 1:0.2700300630210491 2:0.9737201198130998
1 1:-0.3913336787782644 2:0.15777701235415487
-1 1:-0.8787309438616543 2:-0.09652873462790774
-1 1:1.049539950378191 2:-0.03689603253869965
-1 1:0.7528240182897643 2:0.6872736624750502
-1 1:0.2718595811743439 2:1.0201466772776768
1 1:0.28778105777575935 2:0.3604270331312098
1 1:-0.15747662612102975 2:-0.4330472117418048
1 1:0.017696026279977888 2:-0.42080898240408127
1 1:0.18181132902059222 2:0.46490388963751866
1 1:-0.04045131349330511 2:0.5064695583524735
1 1:0.5031008528745768 2:0.18460218458282399
1 1:0.20016709148103615 2:-0.4482475395561959
1 1:-0.4692762482672032 2:0.21011822567684116
1 1:-0.2554535172226939 2:0.4332402249004335
1 1:0.5064463491322135 2:0.04085816141016027
1 1:0.3906010894480528 2:-0.14623428380658982
-1 1:0.354982137860335 2:-0.9234303120322344
-1 1:-0.09900720929666817 2:-1.0918156603564686
-1 1:-0.9333980157404658 2:0.32345893594497527
-1 1:-1.0141262374400082 2:0.01729939708095951
-1 1:-0.5624174201172387 2:-0.7580142092209287
1 1:-0.1766243099085914 2:0.44790801689875703
-1 1:-0.755195640272389 2:0.6279318106965397
1 1:-0.4575298077534381 2:-0.2924265495504242
1 1:-0.4531516588004751 2:-0.3474686548085911
-1 1:1.0322354320224927 2:-0.35421925173007984
1 1:0.19409619781671966 2:-0.49864029863076015
-1 1:-0.5749315792426198 2:0.8135770249350254
-1 1:0.918118201717131 2:0.2740448743473045
1 1:-0.22792883636023784 2:0.4256142383189593
-1 1:0.9624523563881267 2:0.14722289592795734
-1 1:-0.9397283441284136 2:0.3613250997470469
1 1:0.449455567337677 2:0.20366350370513733
-1 1:0.5505079586835155 2:0.7689010571087016
-1 1:-0.9255472252445338 2:-0.2910109528603301
-1 1:-0.8886498090194299 2:0.6503916429187954
1 1:0.3757787871249946 2:0.3120993902087595
1 1:-0.27163578446373887 2:0.36725260311383473
-1 1:-0.8335428424149809 2:0.6685049990268068
1 1:-0.4442151895122345 2:-0.2959694630727042
-1 1:-0.18467777087270032 2:-0.9702696929248148
-1 1:0.09617195398888752 2:0.9473346187285892
-1 1:0.45844927846081696 2:0.8402708330185843
1 1:-0.4046055261893376 2:-0.23471982545756537
-1 1:0.9082144772198445 2:-0.37723241010212843
1 1:0.5599515316328885 2:-0.1280851404995515
-1 1:0.7883744933921263 2:0.6158206254113392
1 1:0.021921579886256502 2:-0.4761016666875127
1 1:-0.04671425174625066 2:-0.41691629580965706
1 1:-0.36108372643430575 2:0.198639213816619
1 1:-0.3868496476330381 2:0.2726831632501673
1 1:0.4915534189982286 2:-0.0879606194438666
1 1:-0.35202860201866665 2:-0.3524703433035005
-1 1:0.051991142080330954 2:0.9695089707785975
-1 1:-1.0166923050768124 2:0.06581769423690448
-1 1:-0.6703468383017994 2:-0.6579771053806722
1 1:0.6246259686416781 2:0.07011688512716835
-1 1:-0.87968024630859 2:0.47215841486310395
1 1:0.19192881881780582 2:0.5244938719746132
1 1:0.5343085297771806 2:-0.08943611548862505
-1 1:-0.8447439969803855 2:-0.5064055614963245
-1 1:-0.15861845387329995 2:1.0059164946345176
1 1:0.4571614888004324 2:-0.24244189062017663
-1 1:0.28653596707105705 2:0.9295666885453447
1 1:0.14572843215192208 2:0.4375473160951613
1 1:0.05911447651148373 2:-0.4523825648860641
-1 1:0.9651135641374917 2:-0.08299980653931595
-1 1:-0.13434669142670952 2:0.9941615133097857
-1 1:-0.9629058245108384 2:-0.10895738340480307
-1 1:0.15601037036685128 2:-1.007056712875251
1 1:0.5318121164385649 2:-0.15261199443363377
-1 1:-0.19983232298165984 2:-0.9308632347373837
-1 1:0.08065890800514466 2:-0.9563231687205465
1 1:0.12788366171978818 2:0.44029380326440504
1 1:-0.2816964343292475 2:-0.29229983885896377
1 1:0.17046361081314063 2:-0.4992257776469076
-1 1:0.2583510746985684 2:-1.0213373852346093
-1 1:-0.0437547010315812 2:0.9118900021947856
-1 1:0.3535449753300162 2:-0.9397993490583905
-1 1:0.8949046750817885 2:-0.49035025861994136
-1 1:0.11625067128850713 2:1.0151897558037755
-1 1:0.6466227356806404 2:0.6629144010852315
1 1:0.2477268559245268 2:0.5536683516082901
-1 1:-0.4739777998532055 2:-0.8419203583808134
1 1:0.35236727372382576 2:-0.15575287975705815
1 1:0.21898915292420512 2:-0.48198086902825843
-1 1:0.7243437501309768 2:-0.7036440503132922
1 1:-0.4974803857090331 2:0.13163466588899198
1 1:-0.4248472155725897 2:0.26566574601192033
-1 1:-0.4143532128937494 2:-0.9344419873144537
1 1:0.22442169129575457 2:0.3361795626086863
1 1:0.12417045105540328 2:-0.4453735237448509
-1 1:-0.19191823424929777 2:0.8959637762960655
1 1:-0.2840871425862683 2:0.43192348400863434
1 1:0.18581070215610895 2:0.5186867589946735
-1 1:-0.9912289462349944 2:0.06942955607220926
-1 1:-0.8540367388232766 2:-0.48104307966090554
1 1:-0.4327190093458048 2:-0.24333804341913082
-1 1:0.9800418517182482 2:0.20276949165688538
-1 1:0.8955935445126274 2:0.2770969569643574
-1 1:-0.46936580228411745 2:-0.8644697855533857
1 1:-0.3224108253676481 2:0.29392864674231334
-1 1:0.556637461381945 2:0.8890856411334673
1 1:-0.46047621813369777 2:-0.1293038403215664
-1 1:-0.734618216514816 2:0.623300353419241
-1 1:-0.9448770521794945 2:-0.41645408587041033
1 1:-0.21410350977713358 2:-0.4801747261894478
1 1:-0.027131930967761925 2:-0.51779882160757
-1 1:-0.8833555335099641 2:0.6036065559449274
1 1:-0.3716584661995758 2:0.29392950143043844
-1 1:-0.5514421749348203 2:-0.9160342811547917
1 1:-0.4950206332093915 2:-0.1189698179343342
-1 1:0.9697133443244663 2:-0.23153813728081246
1 1:-0.44308516111851715 2:-0.1963757311819609
1 1:-0.4807349694451945 2:-0.12331031983394833
1 1:0.03998967721577318 2:0.40434336082861067
-1 1:0.3413198973381714 2:0.9247204186289469
1 1:-0.3511395876773134 2:0.42534948798990296
1 1:0.19816735868486585 2:0.4436906232864699
1 1:-0.12722793807824118 2:-0.4766613227221015
1 1:-0.03303921512635548 2:-0.49605243618105443
-1 1:-1.094783243911148 2:0.06135185223793058
-1 1:-0.5326209109075243 2:0.7274696155002252
-1 1:-0.47863517790447463 2:0.9492241560790885
-1 1:-0.9970552841981905 2:-0.13596682288827464
1 1:0.2455987284230772 2:0.5320347769714372
1 1:0.5144188833808786 2:0.12701558478387875
-1 1:-0.9535450271125434 2:-0.2731025656765172
-1 1:-0.5962023746287386 2:-0.8012638890452295
-1 1:1.0096684248729961 2:0.11561357050423865
1 1:-0.38458605422796704 2:0.3562250742374712
-1 1:-0.36471609609675937 2:1.0287680270793655
-1 1:0.8521152486279552 2:-0.5566152803466557
-1 1:0.9065296295043189 2:0.4217793613981191
1 1:-0.16412590511156225 2:-0.4028295052896756
1 1:0.6180733637412231 2:0.007442678857380754
1 1:0.25910491974003197 2:0.39699495107436555
1 1:0.42027096625412086 2:0.1650620936326384
-1 1:-0.388184160663438 2:-0.8559820985641661
-1 1:0.22414773287710282 2:-1.0512471623177415
-1 1:0.854551287099981 2:0.36811680190047785
1 1:0.04101706661391347 2:-0.5033825654059707
1 1:-0.18640115202394583 2:0.45182097909140395
-1 1:0.6361129935040466 2:-0.7504205754631804
1 1:-0.4854933967189533 2:-0.11682592989994074
1 1:-0.0614666507722829 2:-0.5745237429721783
-1 1:-0.8863516861794604 2:-0.18488414251795227
1 1:0.02784444147307326 2:-0.5206170560780826
1 1:-0.29490066545572785 2:-0.4931620444005922
-1 1:-0.772969654219286 2:-0.5712088870420822
1 1:0.5299064984224916 2:0.306670508314446
-1 1:0.7453039378997637 2:0.7187316282267073
1 1:0.20477756030682043 2:0.376561553081618
1 1:-0.3423079819388518 2:-0.37439629749324144
1 1:0.45140602326263757 2:0.2558290431253702
1 1:-0.415425165906949 2:0.27807875058331566
-1 1:0.8224770131495391 2:0.5117970755941335
-1 1:1.0040362295500072 2:0.3296190367707789
-1 1:-0.46454648055483494 2:0.9509947192957598
1 1:-0.22252289915921725 2:-0.38706896732324353
-1 1:0.8198532094893617 2:0.48478520360601457
-1 1:0.2894668761004613 2:1.0168174747859458
1 1:-0.4010039868937463 2:-0.30873923460179864
1 1:0.37425097644761474 2:-0.3669246160521554
-1 1:0.948936615979738 2:0.23126399029412079
1 1:-0.3504704451844349 2:0.4287638323105333
-1 1:0.2233701803787829 2:-0.9398691018650976
1 1:0.006824611197522618 2:0.432834034781215
-1 1:0.9648752175296966 2:-0.09944124186758257
-1 1:0.06469648166517689 2:-1.0259137137812537
1 1:0.2658323228248726 2:-0.39436113035956466
-1 1:-1.0223460902445645 2:0.12378570116770736
1 1:-0.48850367684164486 2:0.21729646599187144
-1 1:-0.2944612266187657 2:1.0295548801952106
1 1:-0.447077376914682 2:-0.16966639179000575
1 1:-0.014273871503592966 2:0.44343209782719945
-1 1:-0.8106331339949749 2:0.7027321849568842
1 1:0.018842768552659983 2:0.47727068885330026
1 1:0.41748886677478814 2:0.286356402590876
-1 1:1.0377426204985063 2:-0.06271661067847542
1 1:-0.5227949091596253 2:-0.055394611910641114
1 1:-0.3336065824538635 2:-0.1762173394515609
-1 1:0.021522372055624035 2:1.0016696502313067
1 1:-0.4604413945945619 2:-0.2381905784874079
-1 1:0.49857109451797427 2:-0.8346045913655533
1 1:0.3353706596163362 2:-0.39815172961507167
-1 1:0.09217866879350112 2:-0.9922691384770423
1 1:-0.04212633095955589 2:0.5778945176063572
-1 1:-0.9854700827194862 2:0.19780129226790483
1 1:-0.5646202120181648 2:-0.17596795165912288
1 1:-0.2080996719352975 2:0.5001823872979275
1 1:-0.2686701728061199 2:0.3321955899415031
-1 1:-0.3025084505178187 2:-1.064056765074885
1 1:-0.048522401019373176 2:0.5148946474186441
-1 1:1.0323779054506856 2:0.02680132674524291
1 1:0.4564805678433772 2:-0.11886673570378428
1 1:0.5834560564459924 2:0.03358156138880187
1 1:0.5588412655089097 2:0.13403427751725766
-1 1:0.3724758535021039 2:0.9859433727026262
1 1:-0.2998827639926521 2:0.4280493007115714
1 1:-0.47705401090291283 2:0.031689956766078435
-1 1:-0.23262765169378374 2:-0.9605067594051943
1 1:0.38664972716889834 2:-0.30401657697096324
-1 1:0.24678348841353032 2:1.1057677839332656
-1 1:0.45532884205696683 2:-0.9771237704099915
1 1:-0.48343893708128244 2:0.19611168566240608
1 1:0.4005015318039266 2:0.2819000867747933
-1 1:-0.4252421101827567 2:0.8537028875792053
1 1:0.20542353048249343 2:-0.4639412698387958
-1 1:0.7966405928851704 2:-0.6542821658371396
-1 1:-1.0442295487349014 2:0.43974864855730306
-1 1:-0.687422082674138 2:-0.7236449547878054
1 1:-0.23727018243014564 2:-0.31267531251063185
1 1:0.06404016697215283 2:0.4979466571710374
-1 1:0.5773357201378162 2:-0.6447688639821805
-1 1:0.4581258571501246 2:0.885907701965732
-1 1:0.9114997364335831 2:-0.44708752642292476
-1 1:0.6844163949251744 2:-0.7282125655422256
-1 1:0.19685552787215305 2:0.975532957566699
1 1:-0.4534807897159125 2:0.09282431238094571
1 1:-0.5009873927784134 2:-0.09036894607930071
-1 1:0.9858160698151457 2:0.10941843418681968
-1 1:0.7728845230220254 2:-0.7670120468788962
-1 1:1.030257065854384 2:0.15723156851535253
-1 1:0.505723415005078 2:0.8056319511246199
-1 1:-0.1996181036663512 2:0.9542235802911826
1 1:-0.11947277785679206 2:0.508566174744858
-1 1:-0.8789345806729145 2:0.46901443015847155
-1 1:-0.8819723985043486 2:-0.19493574611305686
-1 1:0.44688890011689153 2:-0.8128755913632627
1 1:-0.09261710823712885 2:-0.3953110579744021
-1 1:-0.8253134017870196 2:0.7086314625417305
1 1:0.5062100455768591 2:0.21176707743133022
1 1:0.23339144102000364 2:-0.340861244793854
-1 1:0.6605700835585318 2:-0.7525570265858954
-1 1:-0.3641624379998945 2:0.8758901706901966
1 1:0.45856709818311026 2:0.04608173591769238
-1 1:-0.576351076338924 2:0.8162940898110986
1 1:0.30093811300712336 2:-0.36894702358861897
1 1:-0.14341137279514973 2:0.5380815061077175
1 1:0.2285033114870128 2:0.4642673955715933
-1 1:-0.4498265979279773 2:0.7820708011799051
1 1:0.12207858855860224 2:-0.47878421945825955
1 1:-0.026535716387475816 2:0.4257607719551565
1 1:-0.3501451301937085 2:0.2393078687174654
-1 1:-0.6926252766997786 2:0.7784459965981981
-1 1:-0.8264681333446191 2:0.5940710430867691
-1 1:1.0788843695614847 2:0.1405196801931409
1 1:-0.42292073752269843 2:0.4379017804023269
1 1:0.04055538669001413 2:-0.46881444113781146
-1 1:1.008414748412645 2:0.21847254329534294
-1 1:-0.08724919815043664 2:-0.9915691087925047
1 1:0.48624458509583346 2:0.008049061009464203
-1 1:-0.5039776367168104 2:-0.8098041461480124
1 1:-0.44820601446204494 2:0.2125817404167996
-1 1:-0.6209582004911007 2:-0.7507719555554043
-1 1:-0.003255422688621364 2:1.0412305678865295
1 1:0.4338839622329821 2:0.2339295162415319
-1 1:0.8457653569117755 2:-0.6170367173229574
1 1:0.2797597127510245 2:0.42159315438290407
1 1:-0.11354445939137703 2:-0.4543963056171492
-1 1:-0.06217515639635009 2:1.1539919234216367
1 1:0.46590344143166423 2:-0.1517311177303937
1 1:0.48330211655245675 2:-0.16679598887454428
-1 1:0.14488548522093914 2:-1.0343505169195233
1 1:-0.3979438536235505 2:-0.26064343458450057
-1 1:0.3061536766197507 2:0.9205924254940817
-1 1:0.5515385787473848 2:-0.7486533247079874
-1 1:1.0627938556922447 2:-0.1183335785524602
1 1:0.46027871512236873 2:0.2934025096231435
1 1:0.3940949616274139 2:-0.3849675810505453
1 1:0.14462588325122075 2:0.47875228629627264
1 1:0.44620821116585296 2:0.3069736020766214
-1 1:0.09684845495431081 2:0.9769062719941237
-1 1:0.686228125826434 2:0.8342011234442475
-1 1:-0.4965995449556143 2:0.926932494649896
-1 1:0.7889907004484527 2:0.6717061737533631
-1 1:0.8086477949323087 2:0.5229121487743297
1 1:0.4895427336972208 2:-0.00915121844264493
-1 1:0.8355685386303808 2:-0.43640031109655963
-1 1:0.845190350775028 2:-0.54455705090169
-1 1:-0.7416796954428975 2:-0.5814455943084499
1 1:0.13678159270858795 2:0.4202411735288397
-1 1:-0.6802048738326361 2:0.6520190662531976
-1 1:-0.9966484915321421 2:0.24720626952733166
-1 1:0.9998238646132634 2:-0.17475309039750533
-1 1:0.8474533689823139 2:0.5487680845895874
-1 1:-0.534931198956467 2:-0.7111969946550742
-1 1:0.3902221890855122 2:-0.7656385266862463
1 1:-0.3416527646407432 2:-0.3868748467451219
1 1:-0.42093824202144986 2:-0.15985488690334035
1 1:0.4542425415426541 2:-0.34599893529090275
1 1:0.4232748573361831 2:-0.2349924181507257
-1 1:-1.0223461160703613 2:0.4481660174954879
1 1:-0.5069845287472147 2:0.09077109919430389
1 1:-0.4300694860319189 2:-0.13898192654242514
1 1:0.41603179739245977 2:0.38591201282667487
-1 1:0.7315058253641749 2:0.7092771005227745
-1 1:0.576477710974818 2:-0.8368221615754967
-1 1:-0.9521394545040047 2:-0.2460153678639555
1 1:-0.27061628427608486 2:0.3583751589495611
-1 1:-0.4088563345002075 2:-0.9741360047699461
